Route #1: 18 16 17 20 7 40
Route #2: 35 39 34 26 21 4
Route #3: 24 33 29 41 27
Route #4: 9 14 5 22 10 32
Route #5: 12 28 43 11 3 6 2
Route #6: 44 31 19 36 30
Route #7: 13 38 23 25 42 1 37 15 8
cost 1238.655029296875